VER
3

OBJSENSE
MIN

PSDVAR
1
5

VAR
2 1
F 2


CON
22 3
L= 5
Q 16
L= 1

OBJACOORD
1
1 1


FCOORD
20
0 0 0 0 1
1 0 1 1 1
2 0 2 2 1
3 0 3 3 1
4 0 4 4 1
6 0 0 0 -1
7 0 1 0 -0.7071067811865476
8 0 1 1 -1
9 0 2 0 -0.7071067811865476
10 0 2 1 -0.7071067811865476
11 0 2 2 -1
12 0 3 0 -0.7071067811865476
13 0 3 1 -0.7071067811865476
14 0 3 2 -0.7071067811865476
15 0 3 3 -1
16 0 4 0 -0.7071067811865476
17 0 4 1 -0.7071067811865476
18 0 4 2 -0.7071067811865476
19 0 4 3 -0.7071067811865476
20 0 4 4 -1

ACOORD
2
5 1 1
21 0 1

BCOORD
20
0 -1
1 -1
2 -1
3 -1
4 -1
7 0.7071067811865476
8 1.25
9 -0.14142135623730953
10 -0.07071067811865477
11 0.51
12 -0.28284271247461906
13 -0.14142135623730953
14 0.028284271247461905
15 0.54
16 0.7071067811865476
17 0.3535533905932738
18 -0.07071067811865477
19 -0.14142135623730953
20 1.25
21 -1

